c ren 1 -> 1
c ren 2 -> 2
c ren 3 -> 3
c ren 5 -> 4
c ren 7 -> 5
c ren 8 -> 6
c ren 9 -> 7
c ren 11 -> 8
c ren 14 -> 9
c ren 15 -> 10
c ren 16 -> 11
c ren 18 -> 12
c ren 21 -> 13
c ren 25 -> 14
c ren 28 -> 15
c ren 29 -> 16
c ren 30 -> 17
c ren 33 -> 18
c ren 34 -> 19
c ren 35 -> 20
c ren 37 -> 21
c ren 39 -> 22
c ren 42 -> 23
c ren 43 -> 24
c ren 53 -> 25
c ren 58 -> 26
p cnf 26 47
a 1 2 3 5 6 7 9 10 11 13 15 18 23 0
d 16 10 11 0
d 19 2 3 0
d 20 6 7 0
d 21 2 3 0
d 25 15 23 0
d 26 10 11 0
e 4 8 12 14 17 22 24 0
1 -2 -3 4 0
-1 -2 3 4 0
1 2 3 4 0
-1 2 -3 4 0
5 6 7 8 0
-5 6 -7 8 0
-4 -8 -9 -12 -13 -14 -17 18 -22 -24 26 0
9 -10 -11 12 0
-9 -10 11 12 0
9 10 11 12 0
-9 10 -11 12 0
-4 -8 10 -12 13 -14 -17 -22 -24 -26 0
-1 -5 -13 14 0
3 5 13 14 0
-2 -3 -13 14 0
2 5 13 14 0
1 3 13 14 0
-4 -8 11 -12 13 -14 -17 -22 -24 -26 0
-15 -16 17 0
15 16 17 0
-18 -19 -20 22 0
18 19 21 22 0
18 20 21 22 0
-18 -21 22 0
-18 -23 24 0
18 23 24 0
-5 -6 7 8 0
5 -6 -7 8 0
-1 -4 -5 -8 -12 -14 -17 19 -20 -22 -24 0
-1 -4 5 -8 -12 -14 -17 19 20 -22 -24 0
1 -4 5 -8 -12 -14 -17 19 -20 -22 -24 0
1 -4 -5 -8 -12 -14 -17 -19 -20 -22 -24 0
-1 -4 5 -8 -12 -14 -17 -19 -20 -22 -24 0
-4 6 7 -8 -12 -14 -17 -22 -24 0
-4 -8 -9 -12 -13 -14 -17 -22 -24 -25 0
1 -4 5 -8 -12 -14 -17 -19 20 -22 -24 0
1 -4 -5 -8 -12 -14 -17 19 20 -22 -24 0
-1 -4 -5 -8 -12 -14 -17 -19 20 -22 -24 0
-4 -8 -9 -12 13 -14 -17 -22 -24 25 0
-4 -8 11 -12 13 -14 -16 -17 -18 -22 -24 0
-4 -8 -9 -12 -13 -14 16 -17 -22 -24 26 0
-4 -8 9 -12 -13 -14 -17 -22 -24 25 0
-4 -8 9 -12 13 -14 -17 -22 -24 -25 0
-4 -8 9 10 -12 -14 -16 -17 -18 -22 -24 0
-4 -8 10 -12 13 -14 -16 -17 -18 -22 -24 0
-4 -8 9 10 -12 -14 -17 -22 -24 -26 0
-4 -8 9 11 -12 -14 -16 -17 -18 -22 -24 0
